NAME: random32
TYPE: TSP
DIMENSION: 32
EDGE_WEIGHT_TYPE: EXPLICIT
EDGE_WEIGHT_FORMAT: FULL_MATRIX
EDGE_WEIGHT_SECTION
0 590 590 590 590 590 21 590 590 590 28 10 590 590 590 590 590 590 590 17 590 590 18 590 590 590 590 590 590 590 590 590
590 0 23 590 590 590 590 590 590 19 590 590 11 590 590 590 590 590 21 590 590 590 590 28 590 590 590 590 590 590 590 590
590 23 0 590 25 590 590 590 590 590 590 590 590 590 590 590 590 590 7 590 590 590 590 590 590 590 590 590 590 33 590 590
590 590 590 0 590 590 590 590 590 590 590 590 36 590 13 40 590 590 590 590 590 590 590 590 590 23 590 590 590 590 590 590
590 590 25 590 0 590 16 12 590 590 590 32 590 590 590 590 590 590 20 590 14 590 590 590 590 590 590 590 590 37 590 590
590 590 590 590 590 0 590 590 590 590 590 590 590 590 590 20 8 12 590 590 590 590 590 590 590 590 590 590 590 590 18 590
21 590 590 590 16 590 0 590 590 590 590 24 590 590 590 590 590 590 590 12 19 590 590 590 590 590 590 590 13 590 590 590
590 590 590 590 12 590 590 0 590 6 590 590 590 590 590 590 590 590 15 590 19 590 590 16 590 590 590 590 590 590 590 590
590 590 590 590 590 590 590 590 0 590 590 590 590 590 590 590 590 590 590 30 590 590 590 590 27 590 14 33 28 590 590 590
590 19 590 590 590 590 590 6 590 0 590 590 590 590 590 590 590 590 11 590 590 590 590 17 590 590 590 590 590 590 590 590
28 590 590 590 590 590 590 590 590 590 0 590 590 590 590 590 590 590 590 32 590 590 41 590 8 590 590 590 590 590 590 590
10 590 590 590 32 590 24 590 590 590 590 0 590 590 590 590 590 590 590 590 590 590 9 590 590 590 590 590 590 15 590 590
590 11 590 36 590 590 590 590 590 590 590 590 0 590 590 590 590 590 590 590 590 590 590 28 590 27 590 590 590 590 590 590
590 590 590 590 590 590 590 590 590 590 590 590 590 0 10 22 590 590 590 590 590 28 590 24 590 15 590 590 590 590 19 590
590 590 590 13 590 590 590 590 590 590 590 590 590 10 0 30 590 590 590 590 590 590 590 590 590 13 590 590 590 590 590 590
590 590 590 40 590 20 590 590 590 590 590 590 590 22 30 0 590 30 590 590 590 590 590 590 590 590 590 590 590 590 10 590
590 590 590 590 590 8 590 590 590 590 590 590 590 590 590 590 0 14 590 590 590 20 590 590 590 590 590 25 590 590 22 35
590 590 590 590 590 12 590 590 590 590 590 590 590 590 590 30 14 0 590 590 590 590 590 590 590 590 590 590 590 590 590 38
590 21 7 590 20 590 590 15 590 11 590 590 590 590 590 590 590 590 0 590 590 590 590 590 590 590 590 590 590 590 590 590
17 590 590 590 590 590 12 590 30 590 32 590 590 590 590 590 590 590 590 0 590 590 590 590 35 590 590 590 9 590 590 590
590 590 590 590 14 590 19 19 590 590 590 590 590 590 590 590 590 590 590 590 0 20 590 23 590 590 590 21 23 590 590 590
590 590 590 590 590 590 590 590 590 590 590 590 590 28 590 590 20 590 590 590 20 0 590 28 590 590 590 18 590 590 18 590
18 590 590 590 590 590 590 590 590 590 41 9 590 590 590 590 590 590 590 590 590 590 0 590 590 590 590 590 590 9 590 590
590 28 590 590 590 590 590 16 590 17 590 590 28 24 590 590 590 590 590 590 23 28 590 0 590 12 590 590 590 590 590 590
590 590 590 590 590 590 590 590 27 590 8 590 590 590 590 590 590 590 590 35 590 590 590 590 0 590 41 590 590 590 590 590
590 590 590 23 590 590 590 590 590 590 590 590 27 15 13 590 590 590 590 590 590 590 590 12 590 0 590 590 590 590 590 590
590 590 590 590 590 590 590 590 14 590 590 590 590 590 590 590 590 590 590 590 590 590 590 590 41 590 0 33 590 590 590 10
590 590 590 590 590 590 590 590 33 590 590 590 590 590 590 590 25 590 590 590 21 18 590 590 590 590 33 0 18 590 590 32
590 590 590 590 590 590 13 590 28 590 590 590 590 590 590 590 590 590 590 9 23 590 590 590 590 590 590 18 0 590 590 590
590 590 33 590 37 590 590 590 590 590 590 15 590 590 590 590 590 590 590 590 590 590 9 590 590 590 590 590 590 0 590 590
590 590 590 590 590 18 590 590 590 590 590 590 590 19 590 10 22 590 590 590 590 18 590 590 590 590 590 590 590 590 0 590
590 590 590 590 590 590 590 590 590 590 590 590 590 590 590 590 35 38 590 590 590 590 590 590 590 590 10 32 590 590 590 0
EOF
